
Log started (V11.0.0) Fri Apr 18 23:54:43 2008

Tried aggregator 1 time.
Reduced MIP has 250 rows, 10001 columns, and 20050 nonzeros.
Presolve time =    0.08 sec.
Clique table members: 200.
MIP emphasis: balance optimality and feasibility.
MIP search method: dynamic search.
Parallel mode: none, using 1 thread.
Root relaxation solution time =    0.31 sec.

        Nodes                                         Cuts/
   Node  Left     Objective  IInf  Best Integer     Best Node    ItCnt     Gap

*     0+    0                        10594.0000       45.3327     1028   99.57%
*     0+    0                           56.0000       45.3327     1028   19.05%
      0     0       46.0000    85       56.0000      Fract: 6     1036   17.86%
*     0+    0                           55.0000       46.0000     1036   16.36%
      0     0       46.0000    79       55.0000    Cliques: 3     1041   16.36%
*     0+    0                           54.0000       46.0000     1041   14.81%
*     0+    0                           53.0000       46.0000     1041   13.21%
*     0+    0                           51.0000       46.0000     1041    9.80%

Repeating presolve.
Tried aggregator 1 time.
MIP Presolve eliminated 0 rows and 5535 columns.
MIP Presolve modified 610 coefficients.
Reduced MIP has 250 rows, 4466 columns, and 8980 nonzeros.
Tried aggregator 1 time.
Represolve time =    0.20 sec.
Clique table members: 539.
MIP emphasis: balance optimality and feasibility.
MIP search method: dynamic search.
Parallel mode: none, using 1 thread.
Root relaxation solution time =    0.11 sec.

        Nodes                                         Cuts/
   Node  Left     Objective  IInf  Best Integer     Best Node    ItCnt     Gap

      0     0       46.0000    94       51.0000       46.0000      751    9.80%
      0     2       46.0000    94       51.0000       46.0000      751    9.80%
    100    99       47.0000    83       51.0000       46.0000     4074    9.80%
    200   189       48.0000    76       51.0000       46.0000     7777    9.80%
    300   278       49.0000    74       51.0000       46.0000    11544    9.80%
    400   365       50.0000    67       51.0000       46.0000    15021    9.80%
*   480+  286                           50.0000       46.0000    19931    8.00%
    500   293       47.0000   136       50.0000       46.0000    25542    8.00%

Clique cuts applied:  1
Cover cuts applied:  107
Mixed integer rounding cuts applied:  24
Zero-half cuts applied:  1

Solution pool: 8 solutions saved.

MIP - Integer optimal solution:  Objective = 4.9000000000e+001
Solution time =   17.22 sec.  Iterations = 34580  Nodes = 591 (378)


Incumbent solution
Variable Name           Solution Value
Cmax                         49.000000
X_1_21                        1.000000
X_2_49                        1.000000
X_3_50                        1.000000
X_4_10                        1.000000
X_5_41                        1.000000
X_6_25                        1.000000
X_7_48                        1.000000
X_8_23                        1.000000
X_9_4                         1.000000
X_10_14                       1.000000
X_11_44                       1.000000
X_12_46                       1.000000
X_13_45                       1.000000
X_14_15                       1.000000
X_15_35                       1.000000
X_16_29                       1.000000
X_17_37                       1.000000
X_18_34                       1.000000
X_19_20                       1.000000
X_20_7                        1.000000
X_21_22                       1.000000
X_22_43                       1.000000
X_23_38                       1.000000
X_24_49                       1.000000
X_25_12                       1.000000
X_26_24                       1.000000
X_27_18                       1.000000
X_28_15                       1.000000
X_29_26                       1.000000
X_30_18                       1.000000
X_31_35                       1.000000
X_32_27                       1.000000
X_33_39                       1.000000
X_34_37                       1.000000
X_35_45                       1.000000
X_36_29                       1.000000
X_37_27                       1.000000
X_38_17                       1.000000
X_39_33                       1.000000
X_40_44                       1.000000
X_41_10                       1.000000
X_42_49                       1.000000
X_43_5                        1.000000
X_44_1                        1.000000
X_45_46                       1.000000
X_46_9                        1.000000
X_47_24                       1.000000
X_48_13                       1.000000
X_49_9                        1.000000
X_50_26                       1.000000
X_51_7                        1.000000
X_52_38                       1.000000
X_53_17                       1.000000
X_54_2                        1.000000
X_55_4                        1.000000
X_56_1                        1.000000
X_57_12                       1.000000
X_58_39                       1.000000
X_59_47                       1.000000
X_60_40                       1.000000
X_61_18                       1.000000
X_62_6                        1.000000
X_63_26                       1.000000
X_64_48                       1.000000
X_65_2                        1.000000
X_66_32                       1.000000
X_67_37                       1.000000
X_68_13                       1.000000
X_69_41                       1.000000
X_70_2                        1.000000
X_71_5                        1.000000
X_72_6                        1.000000
X_73_16                       1.000000
X_74_40                       1.000000
X_75_39                       1.000000
X_76_28                       1.000000
X_77_33                       1.000000
X_78_28                       1.000000
X_79_41                       1.000000
X_80_25                       1.000000
X_81_8                        1.000000
X_82_27                       1.000000
X_83_3                        1.000000
X_84_11                       1.000000
X_85_8                        1.000000
X_86_10                       1.000000
X_87_30                       1.000000
X_88_49                       1.000000
X_89_36                       1.000000
X_90_50                       1.000000
X_91_16                       1.000000
X_92_34                       1.000000
X_93_24                       1.000000
X_94_4                        1.000000
X_95_21                       1.000000
X_96_21                       1.000000
X_97_23                       1.000000
X_98_42                       1.000000
X_99_40                       1.000000
X_100_4                       1.000000
X_101_36                      1.000000
X_102_31                      1.000000
X_103_3                       1.000000
X_104_20                      1.000000
X_105_40                      1.000000
X_106_30                      1.000000
X_107_45                      1.000000
X_108_34                      1.000000
X_109_37                      1.000000
X_110_47                      1.000000
X_111_11                      1.000000
X_112_11                      1.000000
X_113_45                      1.000000
X_114_14                      1.000000
X_115_10                      1.000000
X_116_12                      1.000000
X_117_3                       1.000000
X_118_7                       1.000000
X_119_32                      1.000000
X_120_16                      1.000000
X_121_44                      1.000000
X_122_18                      1.000000
X_123_1                       1.000000
X_124_3                       1.000000
X_125_9                       1.000000
X_126_32                      1.000000
X_127_9                       1.000000
X_128_28                      1.000000
X_129_5                       1.000000
X_130_7                       1.000000
X_131_8                       1.000000
X_132_12                      1.000000
X_133_47                      1.000000
X_134_29                      1.000000
X_135_28                      1.000000
X_136_5                       1.000000
X_137_44                      1.000000
X_138_36                      1.000000
X_139_15                      1.000000
X_140_50                      1.000000
X_141_13                      1.000000
X_142_33                      1.000000
X_143_11                      1.000000
X_144_47                      1.000000
X_145_21                      1.000000
X_146_31                      1.000000
X_147_14                      1.000000
X_148_27                      1.000000
X_149_19                      1.000000
X_150_17                      1.000000
X_151_31                      1.000000
X_152_34                      1.000000
X_153_38                      1.000000
X_154_50                      1.000000
X_155_36                      1.000000
X_156_25                      1.000000
X_157_35                      1.000000
X_158_42                      1.000000
X_159_32                      1.000000
X_160_22                      1.000000
X_161_15                      1.000000
X_162_20                      1.000000
X_163_19                      1.000000
X_164_33                      1.000000
X_165_43                      1.000000
X_166_23                      1.000000
X_167_48                      1.000000
X_168_8                       1.000000
X_169_23                      1.000000
X_170_35                      1.000000
X_171_19                      1.000000
X_172_14                      1.000000
X_173_20                      1.000000
X_174_1                       1.000000
X_175_42                      1.000000
X_176_46                      1.000000
X_177_30                      1.000000
X_178_29                      1.000000
X_179_6                       1.000000
X_180_13                      1.000000
X_181_22                      1.000000
X_182_24                      1.000000
X_183_17                      1.000000
X_184_42                      1.000000
X_185_6                       1.000000
X_186_38                      1.000000
X_187_31                      1.000000
X_188_48                      1.000000
X_189_26                      1.000000
X_190_2                       1.000000
X_191_43                      1.000000
X_192_19                      1.000000
X_193_30                      1.000000
X_194_22                      1.000000
X_195_43                      1.000000
X_196_16                      1.000000
X_197_25                      1.000000
X_198_46                      1.000000
X_199_41                      1.000000
X_200_39                      1.000000
All other variables in the range 1-10001 are 0.
